solutions/Insertion/cheapest/X-n148-k46.txt
[[[99], [99, 42], [99, 46, 42], [99, 46, 42]], [[23], [23, 47], [23, 47, 126], [23, 47, 126]], [[75], [75, 88], [75, 88]], [[118], [118, 62], [118, 62, 107], [118, 62, 107]], [[39], [39, 43], [39, 43, 89], [39, 43, 89]], [[44], [44]], [[86], [86, 84], [86, 84]], [[73], [73, 58], [73, 58]], [[18], [18, 137], [18, 137]], [[110], [110, 85], [110, 85, 127], [110, 85, 127]], [[134], [134, 109], [134, 109, 77], [134, 109, 77]], [[21], [21, 72], [21, 72, 124], [21, 72, 124]], [[136], [136, 82], [136, 82, 104], [136, 82, 104, 142], [136, 82, 104, 142]], [[68], [68, 54], [68, 54, 10], [68, 54, 10, 129], [68, 54, 10, 129]], [[122], [122, 2], [122, 2, 111], [122, 2, 111]], [[93], [93]], [[106], [106]], [[14], [14, 98], [14, 98, 67], [14, 98, 67, 61], [14, 98, 67, 61]], [[27], [27, 22], [27, 22, 55], [27, 22, 55]], [[53], [53, 19], [53, 19, 4], [53, 19, 4, 114], [53, 19, 4, 114, 8], [53, 19, 4, 114, 8]], [[17], [17, 112], [17, 112, 92], [17, 112, 92]], [[32], [32, 113], [32, 113]], [[121], [121, 140], [121, 140]], [[83], [83, 143], [83, 143, 76], [83, 143, 76]], [[123], [123, 128], [123, 128]], [[56], [56, 30], [56, 30]], [[87], [87, 95], [87, 95]], [[70], [70, 35], [70, 35, 79], [70, 35, 79]], [[45], [45, 60], [45, 60, 94], [45, 60, 94, 64], [45, 60, 94, 64]], [[57], [57, 7], [57, 7, 130], [57, 7, 130]], [[96], [96, 146], [96, 146]], [[132], [132, 97], [132, 97]], [[91], [91, 139], [91, 139]], [[26], [26, 37], [26, 37, 125], [26, 37, 125, 52], [26, 37, 125, 52]], [[31], [31, 15], [31, 15, 108], [31, 15, 108, 74], [31, 15, 108, 74]], [[49], [49, 145], [49, 145, 34], [49, 145, 34, 36], [49, 145, 34, 36]], [[28], [28, 59], [28, 59]], [[102], [102, 138], [102, 138, 131], [102, 138, 131, 16], [102, 138, 131, 16]], [[20], [20, 40], [20, 40]], [[33], [33, 66], [33, 66, 13], [33, 66, 13, 71], [33, 66, 13, 71]], [[1], [1, 5], [1, 5]], [[100], [100, 116], [100, 116, 90], [100, 116, 90]], [[105], [105, 6], [105, 6, 115], [105, 6, 115]], [[117], [117, 12], [117, 12, 3], [117, 12, 3]], [[51], [51, 147], [51, 147]], [[135], [135, 48], [135, 48, 103], [135, 48, 103]], [[65], [65, 141], [65, 141]], [[101], [101, 80], [101, 80, 120], [101, 80, 120]], [[38], [38, 69], [38, 69, 11], [38, 69, 11, 50], [38, 69, 11, 50]], [[25], [25, 29], [25, 29, 9], [25, 29, 9, 24], [25, 29, 9, 24]], [[81], [81, 119], [81, 119]], [[41], [41, 78], [41, 78]], [[144], [144, 133], [144, 133, 63], [144, 133, 63]]]